20191224 61 0 0 0
20190107 72 0 0 0
20180508 80 0 0 0
20180507 80 0 0 0
20170512 60 0 0 0
20160511 80 5000 0 0
20150513 100 5000 0 0
20140527 100 0 0 0
20130528 180 9990 0 0
20120504 300 10000 0 0
20110525 250 0 0 0
20100810 200 0 0 0
